p tw 24 155
0 1
0 2
0 12
0 13
0 4
0 16
0 8
0 15
0 20
0 3
1 2
1 3
1 10
1 4
1 6
1 16
1 15
1 8
1 22
1 7
1 20
1 21
2 18
2 23
2 4
2 16
2 8
2 20
2 21
2 6
2 19
2 9
2 13
2 7
2 15
3 4
3 5
3 10
3 9
3 12
3 15
3 8
3 7
3 14
3 22
4 5
4 16
4 6
4 17
4 14
4 12
4 21
4 15
4 22
4 10
4 20
4 13
5 9
5 15
5 8
5 18
5 14
5 17
5 10
5 7
5 22
5 6
5 12
6 7
6 8
6 11
6 14
6 17
6 19
6 15
6 21
7 8
7 9
7 18
7 22
7 11
7 14
7 20
7 15
7 12
8 18
8 12
8 20
8 13
8 23
8 11
8 10
8 15
9 10
9 11
9 15
9 17
9 18
9 16
9 13
9 19
9 12
9 21
9 22
9 14
10 11
10 15
10 20
10 14
10 18
10 16
10 12
11 14
11 17
11 12
11 15
11 20
11 19
11 16
11 22
12 13
12 15
12 19
12 18
12 20
12 21
12 14
13 19
13 22
13 23
13 15
13 21
13 20
14 17
14 19
14 20
14 21
14 18
15 19
15 17
15 22
15 20
15 21
16 17
16 22
17 18
17 22
18 23
18 20
19 22
19 20
20 21
20 22
21 22
22 23
